c " random instance " 
p edges 200 2163
e 1 15
e 1 36
e 1 49
e 1 50
e 1 51
e 1 68
e 1 72
e 1 74
e 1 79
e 1 83
e 1 97
e 1 121
e 1 127
e 1 128
e 1 129
e 1 141
e 1 166
e 1 172
e 1 177
e 1 184
e 1 187
e 1 197
e 2 10
e 2 16
e 2 28
e 2 31
e 2 40
e 2 42
e 2 44
e 2 55
e 2 63
e 2 66
e 2 76
e 2 95
e 2 100
e 2 102
e 2 106
e 2 113
e 2 134
e 2 148
e 2 155
e 2 174
e 2 183
e 2 195
e 2 196
e 2 200
e 3 9
e 3 29
e 3 33
e 3 35
e 3 49
e 3 56
e 3 59
e 3 62
e 3 72
e 3 93
e 3 96
e 3 104
e 3 106
e 3 146
e 3 192
e 3 197
e 3 198
e 4 17
e 4 21
e 4 30
e 4 38
e 4 40
e 4 42
e 4 50
e 4 75
e 4 79
e 4 92
e 4 93
e 4 94
e 4 103
e 4 108
e 4 113
e 4 118
e 4 142
e 4 144
e 4 155
e 4 156
e 4 170
e 4 180
e 4 183
e 5 23
e 5 63
e 5 66
e 5 76
e 5 88
e 5 93
e 5 100
e 5 101
e 5 109
e 5 121
e 5 133
e 5 143
e 5 147
e 5 149
e 5 151
e 5 170
e 5 175
e 6 17
e 6 26
e 6 54
e 6 58
e 6 85
e 6 90
e 6 96
e 6 100
e 6 101
e 6 105
e 6 113
e 6 118
e 6 129
e 6 136
e 6 153
e 6 155
e 6 156
e 6 168
e 6 173
e 6 187
e 6 188
e 6 195
e 7 17
e 7 22
e 7 23
e 7 45
e 7 47
e 7 97
e 7 106
e 7 112
e 7 113
e 7 119
e 7 124
e 7 140
e 7 141
e 7 154
e 7 156
e 7 160
e 7 170
e 7 192
e 8 13
e 8 24
e 8 27
e 8 36
e 8 52
e 8 63
e 8 73
e 8 89
e 8 91
e 8 96
e 8 110
e 8 114
e 8 116
e 8 123
e 8 124
e 8 143
e 8 144
e 8 147
e 8 157
e 8 188
e 8 199
e 8 200
e 9 15
e 9 16
e 9 23
e 9 32
e 9 46
e 9 50
e 9 59
e 9 61
e 9 69
e 9 70
e 9 71
e 9 76
e 9 79
e 9 86
e 9 92
e 9 105
e 9 121
e 9 124
e 9 125
e 9 127
e 9 133
e 9 144
e 9 155
e 9 169
e 9 170
e 9 176
e 9 178
e 9 187
e 9 188
e 9 195
e 9 196
e 9 197
e 10 17
e 10 18
e 10 24
e 10 30
e 10 43
e 10 48
e 10 61
e 10 62
e 10 66
e 10 85
e 10 97
e 10 105
e 10 110
e 10 112
e 10 114
e 10 120
e 10 121
e 10 151
e 10 162
e 10 168
e 10 173
e 10 176
e 10 178
e 10 182
e 10 195
e 10 200
e 11 12
e 11 27
e 11 33
e 11 47
e 11 51
e 11 58
e 11 62
e 11 64
e 11 65
e 11 71
e 11 76
e 11 77
e 11 95
e 11 103
e 11 108
e 11 114
e 11 128
e 11 134
e 11 140
e 11 178
e 12 17
e 12 22
e 12 25
e 12 30
e 12 57
e 12 73
e 12 78
e 12 79
e 12 81
e 12 108
e 12 118
e 12 122
e 12 137
e 12 149
e 12 150
e 12 178
e 12 196
e 13 19
e 13 20
e 13 22
e 13 27
e 13 28
e 13 34
e 13 37
e 13 41
e 13 50
e 13 61
e 13 65
e 13 68
e 13 71
e 13 87
e 13 96
e 13 99
e 13 101
e 13 103
e 13 105
e 13 119
e 13 149
e 13 164
e 13 174
e 13 177
e 13 178
e 13 186
e 13 188
e 13 192
e 14 25
e 14 31
e 14 35
e 14 42
e 14 49
e 14 65
e 14 66
e 14 67
e 14 75
e 14 83
e 14 99
e 14 103
e 14 139
e 14 140
e 14 141
e 14 142
e 14 154
e 14 171
e 14 179
e 14 184
e 15 18
e 15 42
e 15 48
e 15 62
e 15 84
e 15 87
e 15 88
e 15 93
e 15 100
e 15 112
e 15 114
e 15 120
e 15 133
e 15 141
e 15 171
e 15 182
e 15 195
e 16 18
e 16 34
e 16 44
e 16 68
e 16 84
e 16 105
e 16 106
e 16 116
e 16 118
e 16 130
e 16 136
e 16 141
e 16 158
e 16 182
e 16 193
e 16 196
e 17 53
e 17 56
e 17 62
e 17 72
e 17 85
e 17 98
e 17 132
e 17 137
e 17 144
e 17 165
e 17 172
e 17 179
e 17 181
e 17 199
e 18 31
e 18 37
e 18 39
e 18 40
e 18 52
e 18 62
e 18 68
e 18 71
e 18 72
e 18 90
e 18 124
e 18 126
e 18 175
e 18 182
e 19 30
e 19 32
e 19 39
e 19 40
e 19 46
e 19 48
e 19 58
e 19 59
e 19 64
e 19 65
e 19 75
e 19 114
e 19 118
e 19 122
e 19 142
e 19 157
e 19 162
e 19 166
e 19 182
e 19 183
e 19 184
e 19 193
e 19 198
e 20 40
e 20 41
e 20 55
e 20 59
e 20 62
e 20 77
e 20 96
e 20 128
e 20 131
e 20 143
e 20 149
e 20 152
e 20 166
e 20 178
e 20 189
e 20 194
e 20 196
e 21 37
e 21 70
e 21 75
e 21 80
e 21 91
e 21 92
e 21 96
e 21 100
e 21 105
e 21 116
e 21 121
e 21 122
e 21 137
e 21 155
e 21 158
e 21 165
e 21 194
e 21 196
e 22 24
e 22 38
e 22 47
e 22 51
e 22 57
e 22 58
e 22 61
e 22 92
e 22 98
e 22 110
e 22 113
e 22 114
e 22 125
e 22 134
e 22 161
e 22 163
e 22 168
e 23 27
e 23 29
e 23 34
e 23 43
e 23 52
e 23 54
e 23 57
e 23 59
e 23 66
e 23 78
e 23 99
e 23 101
e 23 120
e 23 121
e 23 131
e 23 134
e 23 144
e 23 147
e 23 160
e 23 162
e 23 174
e 23 185
e 23 192
e 24 46
e 24 47
e 24 61
e 24 64
e 24 81
e 24 89
e 24 92
e 24 111
e 24 115
e 24 120
e 24 126
e 24 127
e 24 141
e 24 148
e 24 152
e 24 157
e 24 168
e 24 171
e 24 196
e 24 199
e 25 34
e 25 60
e 25 83
e 25 99
e 25 103
e 25 107
e 25 122
e 25 128
e 25 132
e 25 135
e 25 136
e 25 148
e 25 155
e 25 161
e 25 162
e 25 167
e 25 177
e 25 199
e 26 55
e 26 62
e 26 74
e 26 78
e 26 89
e 26 94
e 26 101
e 26 103
e 26 111
e 26 112
e 26 123
e 26 125
e 26 128
e 26 146
e 26 150
e 26 152
e 26 153
e 26 171
e 26 184
e 27 34
e 27 84
e 27 105
e 27 117
e 27 124
e 27 132
e 27 139
e 27 148
e 27 154
e 27 167
e 27 168
e 27 173
e 27 177
e 27 185
e 28 29
e 28 33
e 28 34
e 28 37
e 28 38
e 28 49
e 28 57
e 28 71
e 28 77
e 28 82
e 28 83
e 28 84
e 28 85
e 28 91
e 28 108
e 28 117
e 28 122
e 28 141
e 28 151
e 28 154
e 28 162
e 28 166
e 29 58
e 29 66
e 29 72
e 29 82
e 29 84
e 29 87
e 29 92
e 29 95
e 29 101
e 29 106
e 29 115
e 29 124
e 29 135
e 29 150
e 29 154
e 29 162
e 29 177
e 29 184
e 29 186
e 29 198
e 30 40
e 30 55
e 30 60
e 30 61
e 30 65
e 30 67
e 30 71
e 30 78
e 30 80
e 30 95
e 30 102
e 30 128
e 30 137
e 30 154
e 30 163
e 30 178
e 30 179
e 30 181
e 30 182
e 31 35
e 31 42
e 31 43
e 31 47
e 31 48
e 31 53
e 31 54
e 31 75
e 31 101
e 31 114
e 31 120
e 31 124
e 31 126
e 31 139
e 31 145
e 31 149
e 31 155
e 31 172
e 31 183
e 31 194
e 32 59
e 32 122
e 32 128
e 32 168
e 33 42
e 33 67
e 33 69
e 33 77
e 33 85
e 33 89
e 33 96
e 33 97
e 33 113
e 33 115
e 33 120
e 33 122
e 33 129
e 33 130
e 33 131
e 33 135
e 33 146
e 33 149
e 33 155
e 33 173
e 33 179
e 33 191
e 33 195
e 34 47
e 34 57
e 34 82
e 34 93
e 34 94
e 34 98
e 34 102
e 34 109
e 34 115
e 34 120
e 34 140
e 34 142
e 34 144
e 34 150
e 34 163
e 34 164
e 34 165
e 34 166
e 34 170
e 34 177
e 34 185
e 34 188
e 35 42
e 35 45
e 35 48
e 35 56
e 35 58
e 35 64
e 35 66
e 35 67
e 35 68
e 35 72
e 35 99
e 35 104
e 35 108
e 35 122
e 35 125
e 35 136
e 35 149
e 35 160
e 35 169
e 35 172
e 35 177
e 35 183
e 35 187
e 35 189
e 35 197
e 35 200
e 36 47
e 36 52
e 36 65
e 36 74
e 36 77
e 36 79
e 36 85
e 36 103
e 36 105
e 36 112
e 36 119
e 36 121
e 36 132
e 36 150
e 36 151
e 36 163
e 36 166
e 36 169
e 36 176
e 36 184
e 36 185
e 36 193
e 36 198
e 36 200
e 37 57
e 37 73
e 37 79
e 37 95
e 37 104
e 37 114
e 37 121
e 37 124
e 37 126
e 37 133
e 37 139
e 37 146
e 37 148
e 37 156
e 37 160
e 37 171
e 37 182
e 37 187
e 38 57
e 38 59
e 38 73
e 38 77
e 38 81
e 38 86
e 38 91
e 38 97
e 38 121
e 38 122
e 38 137
e 38 166
e 38 172
e 38 176
e 38 179
e 38 185
e 38 199
e 39 46
e 39 48
e 39 86
e 39 101
e 39 102
e 39 104
e 39 112
e 39 130
e 39 136
e 39 140
e 39 142
e 39 148
e 39 154
e 39 158
e 39 162
e 39 163
e 39 169
e 39 173
e 39 179
e 39 197
e 40 53
e 40 55
e 40 70
e 40 86
e 40 108
e 40 113
e 40 132
e 40 140
e 40 143
e 40 144
e 40 150
e 40 151
e 40 155
e 40 162
e 40 186
e 40 187
e 40 192
e 40 198
e 40 199
e 41 52
e 41 67
e 41 81
e 41 82
e 41 90
e 41 91
e 41 111
e 41 114
e 41 119
e 41 128
e 41 129
e 41 142
e 41 143
e 41 152
e 41 167
e 41 179
e 41 196
e 42 55
e 42 61
e 42 76
e 42 81
e 42 94
e 42 109
e 42 113
e 42 114
e 42 118
e 42 122
e 42 130
e 42 139
e 42 144
e 42 145
e 42 148
e 42 150
e 42 156
e 42 181
e 42 199
e 43 44
e 43 45
e 43 47
e 43 51
e 43 82
e 43 83
e 43 103
e 43 105
e 43 112
e 43 124
e 43 127
e 43 129
e 43 133
e 43 141
e 43 156
e 43 170
e 43 178
e 43 179
e 43 189
e 44 53
e 44 62
e 44 81
e 44 115
e 44 122
e 44 123
e 44 127
e 44 129
e 44 144
e 44 155
e 44 163
e 44 165
e 44 177
e 44 179
e 45 55
e 45 78
e 45 80
e 45 86
e 45 90
e 45 110
e 45 114
e 45 115
e 45 120
e 45 124
e 45 129
e 45 133
e 45 149
e 45 157
e 45 165
e 45 172
e 45 176
e 45 184
e 46 51
e 46 59
e 46 63
e 46 71
e 46 73
e 46 79
e 46 82
e 46 83
e 46 91
e 46 109
e 46 119
e 46 124
e 46 142
e 46 156
e 46 158
e 46 169
e 46 184
e 46 194
e 46 197
e 47 52
e 47 56
e 47 75
e 47 79
e 47 83
e 47 85
e 47 96
e 47 97
e 47 103
e 47 107
e 47 108
e 47 115
e 47 118
e 47 125
e 47 159
e 47 167
e 47 188
e 47 189
e 47 191
e 48 54
e 48 77
e 48 80
e 48 107
e 48 112
e 48 116
e 48 123
e 48 150
e 48 166
e 48 167
e 48 169
e 48 174
e 48 177
e 48 198
e 49 53
e 49 65
e 49 70
e 49 80
e 49 84
e 49 95
e 49 106
e 49 109
e 49 110
e 49 125
e 49 134
e 49 135
e 49 148
e 49 159
e 49 166
e 49 171
e 49 174
e 49 176
e 49 182
e 49 183
e 50 64
e 50 69
e 50 77
e 50 83
e 50 90
e 50 102
e 50 105
e 50 112
e 50 120
e 50 122
e 50 143
e 50 169
e 50 170
e 50 177
e 50 190
e 50 193
e 50 194
e 50 200
e 51 56
e 51 67
e 51 68
e 51 74
e 51 83
e 51 94
e 51 99
e 51 118
e 51 121
e 51 123
e 51 127
e 51 140
e 51 143
e 51 146
e 51 153
e 51 191
e 51 199
e 51 200
e 52 55
e 52 78
e 52 82
e 52 87
e 52 113
e 52 122
e 52 146
e 52 150
e 52 163
e 52 166
e 52 178
e 52 190
e 52 197
e 53 70
e 53 80
e 53 104
e 53 116
e 53 117
e 53 126
e 53 133
e 53 134
e 53 137
e 53 148
e 53 153
e 53 154
e 53 161
e 53 165
e 53 166
e 53 169
e 53 183
e 53 187
e 54 55
e 54 62
e 54 73
e 54 84
e 54 102
e 54 113
e 54 136
e 54 149
e 54 151
e 54 174
e 54 179
e 54 191
e 54 193
e 55 56
e 55 101
e 55 120
e 55 121
e 55 123
e 55 128
e 55 141
e 55 144
e 55 151
e 55 155
e 55 177
e 55 182
e 56 69
e 56 77
e 56 88
e 56 90
e 56 97
e 56 102
e 56 103
e 56 139
e 56 142
e 56 144
e 56 157
e 56 165
e 56 166
e 56 174
e 56 178
e 56 181
e 56 186
e 56 192
e 56 197
e 57 75
e 57 92
e 57 93
e 57 111
e 57 113
e 57 115
e 57 116
e 57 119
e 57 139
e 57 163
e 57 174
e 57 176
e 57 194
e 58 79
e 58 93
e 58 96
e 58 105
e 58 110
e 58 121
e 58 124
e 58 133
e 58 148
e 58 160
e 58 163
e 58 179
e 58 195
e 58 199
e 59 60
e 59 73
e 59 78
e 59 82
e 59 83
e 59 90
e 59 119
e 59 120
e 59 123
e 59 133
e 59 176
e 59 189
e 59 191
e 60 68
e 60 74
e 60 75
e 60 83
e 60 92
e 60 108
e 60 110
e 60 133
e 60 135
e 60 139
e 60 153
e 60 163
e 60 164
e 60 185
e 60 187
e 60 189
e 60 199
e 61 72
e 61 73
e 61 74
e 61 84
e 61 104
e 61 138
e 61 143
e 61 174
e 61 181
e 61 195
e 61 197
e 62 91
e 62 95
e 62 96
e 62 97
e 62 103
e 62 104
e 62 123
e 62 126
e 62 127
e 62 158
e 62 188
e 62 193
e 62 195
e 63 71
e 63 87
e 63 92
e 63 95
e 63 96
e 63 109
e 63 110
e 63 114
e 63 126
e 63 129
e 63 130
e 63 132
e 63 144
e 63 148
e 63 154
e 63 160
e 63 162
e 63 171
e 63 173
e 63 183
e 63 187
e 63 191
e 63 192
e 63 196
e 64 78
e 64 80
e 64 84
e 64 85
e 64 92
e 64 94
e 64 95
e 64 96
e 64 97
e 64 103
e 64 105
e 64 113
e 64 145
e 64 150
e 64 151
e 64 152
e 64 154
e 64 171
e 64 184
e 64 191
e 64 194
e 65 75
e 65 86
e 65 87
e 65 94
e 65 95
e 65 116
e 65 126
e 65 149
e 65 160
e 65 167
e 65 196
e 66 82
e 66 85
e 66 91
e 66 117
e 66 135
e 66 139
e 66 159
e 66 185
e 66 186
e 66 187
e 67 76
e 67 79
e 67 85
e 67 91
e 67 100
e 67 117
e 67 136
e 67 145
e 67 146
e 67 149
e 67 160
e 67 168
e 67 176
e 67 184
e 67 187
e 67 193
e 67 198
e 68 73
e 68 79
e 68 80
e 68 106
e 68 116
e 68 124
e 68 128
e 68 132
e 68 145
e 68 150
e 68 163
e 68 164
e 68 167
e 68 179
e 68 183
e 68 191
e 68 195
e 69 77
e 69 84
e 69 104
e 69 106
e 69 114
e 69 125
e 69 129
e 69 136
e 69 155
e 69 160
e 69 175
e 69 200
e 70 82
e 70 88
e 70 97
e 70 102
e 70 119
e 70 154
e 70 155
e 70 184
e 70 190
e 70 194
e 70 196
e 70 197
e 71 73
e 71 80
e 71 98
e 71 104
e 71 127
e 71 128
e 71 145
e 71 165
e 71 168
e 71 173
e 71 180
e 71 187
e 71 198
e 72 74
e 72 80
e 72 81
e 72 82
e 72 88
e 72 94
e 72 96
e 72 100
e 72 117
e 72 118
e 72 128
e 72 146
e 72 162
e 72 164
e 72 193
e 72 197
e 73 80
e 73 102
e 73 112
e 73 127
e 73 144
e 73 145
e 73 160
e 73 162
e 73 165
e 73 175
e 73 178
e 73 180
e 73 187
e 73 196
e 74 84
e 74 86
e 74 89
e 74 93
e 74 101
e 74 103
e 74 107
e 74 111
e 74 122
e 74 125
e 74 129
e 74 133
e 74 135
e 74 137
e 74 146
e 74 153
e 74 158
e 74 162
e 74 172
e 74 178
e 74 181
e 74 195
e 75 82
e 75 106
e 75 158
e 75 183
e 76 91
e 76 109
e 76 111
e 76 198
e 77 98
e 77 103
e 77 117
e 77 124
e 77 129
e 77 133
e 77 143
e 77 146
e 77 163
e 77 166
e 77 174
e 77 175
e 77 177
e 77 187
e 77 196
e 77 198
e 78 81
e 78 84
e 78 86
e 78 87
e 78 95
e 78 107
e 78 110
e 78 113
e 78 126
e 78 169
e 78 171
e 78 176
e 78 178
e 78 189
e 79 86
e 79 89
e 79 100
e 79 102
e 79 111
e 79 118
e 79 132
e 79 166
e 79 169
e 79 172
e 79 177
e 79 178
e 79 180
e 79 183
e 79 184
e 79 188
e 79 191
e 79 200
e 80 82
e 80 134
e 80 144
e 80 149
e 80 153
e 80 154
e 80 174
e 80 184
e 80 187
e 81 96
e 81 100
e 81 112
e 81 113
e 81 116
e 81 121
e 81 160
e 81 176
e 81 187
e 82 98
e 82 100
e 82 105
e 82 113
e 82 120
e 82 123
e 82 132
e 82 134
e 82 135
e 82 148
e 82 157
e 82 162
e 82 174
e 82 188
e 82 194
e 82 195
e 82 196
e 83 94
e 83 97
e 83 114
e 83 129
e 83 134
e 83 142
e 83 150
e 83 158
e 83 160
e 83 166
e 83 188
e 83 189
e 84 90
e 84 92
e 84 93
e 84 99
e 84 102
e 84 111
e 84 113
e 84 115
e 84 149
e 84 159
e 84 178
e 84 189
e 84 190
e 84 195
e 84 198
e 85 134
e 85 141
e 85 161
e 85 175
e 85 194
e 85 196
e 86 103
e 86 104
e 86 110
e 86 111
e 86 112
e 86 117
e 86 128
e 86 144
e 86 159
e 86 160
e 86 180
e 86 187
e 87 105
e 87 108
e 87 119
e 87 126
e 87 135
e 87 141
e 87 144
e 87 146
e 87 148
e 87 149
e 87 151
e 87 166
e 87 195
e 87 196
e 88 109
e 88 145
e 88 150
e 88 162
e 88 166
e 88 169
e 88 172
e 88 198
e 88 200
e 89 96
e 89 118
e 89 120
e 89 123
e 89 124
e 89 130
e 89 151
e 89 152
e 89 153
e 89 157
e 89 163
e 89 192
e 89 197
e 90 99
e 90 101
e 90 111
e 90 117
e 90 120
e 90 137
e 90 144
e 90 149
e 90 153
e 90 154
e 90 165
e 90 176
e 90 181
e 90 184
e 90 188
e 90 193
e 90 195
e 90 200
e 91 97
e 91 100
e 91 103
e 91 112
e 91 118
e 91 120
e 91 130
e 91 144
e 91 146
e 91 148
e 91 152
e 91 162
e 91 173
e 91 185
e 91 193
e 92 97
e 92 107
e 92 120
e 92 128
e 92 129
e 92 154
e 92 155
e 92 171
e 92 191
e 93 100
e 93 132
e 93 133
e 93 147
e 93 155
e 93 168
e 93 173
e 93 179
e 93 193
e 93 199
e 94 116
e 94 117
e 94 127
e 94 139
e 94 142
e 94 148
e 94 155
e 94 156
e 94 159
e 94 162
e 94 164
e 94 167
e 94 176
e 94 183
e 94 189
e 95 96
e 95 146
e 95 147
e 95 156
e 95 163
e 95 188
e 95 190
e 95 191
e 95 194
e 95 195
e 96 107
e 96 128
e 96 133
e 96 141
e 96 145
e 96 150
e 96 162
e 96 168
e 96 183
e 96 195
e 97 113
e 97 125
e 97 159
e 97 171
e 97 177
e 97 188
e 97 195
e 98 118
e 98 133
e 98 134
e 98 135
e 98 181
e 99 101
e 99 106
e 99 109
e 99 111
e 99 113
e 99 118
e 99 122
e 99 128
e 99 129
e 99 173
e 99 181
e 100 106
e 100 110
e 100 111
e 100 114
e 100 122
e 100 132
e 100 135
e 100 141
e 100 142
e 100 192
e 101 139
e 101 140
e 101 141
e 101 172
e 101 174
e 101 186
e 102 115
e 102 125
e 102 161
e 102 163
e 102 180
e 102 189
e 102 191
e 102 192
e 102 196
e 102 198
e 103 104
e 103 108
e 103 116
e 103 120
e 103 124
e 103 128
e 103 155
e 103 159
e 103 166
e 103 187
e 103 199
e 104 132
e 104 135
e 104 144
e 104 170
e 104 183
e 104 191
e 105 143
e 105 159
e 105 166
e 105 174
e 105 179
e 105 200
e 106 107
e 106 120
e 106 135
e 106 147
e 106 158
e 106 161
e 106 169
e 106 187
e 106 191
e 106 194
e 107 122
e 107 129
e 107 136
e 107 139
e 107 141
e 107 151
e 107 156
e 107 163
e 107 167
e 107 178
e 107 180
e 107 187
e 107 189
e 108 110
e 108 123
e 108 142
e 108 158
e 108 161
e 109 117
e 109 126
e 109 140
e 109 154
e 109 157
e 109 165
e 109 177
e 109 178
e 109 194
e 109 195
e 109 199
e 110 117
e 110 128
e 110 152
e 110 158
e 110 163
e 110 171
e 110 177
e 110 178
e 110 183
e 110 195
e 111 112
e 111 124
e 111 130
e 112 123
e 112 125
e 112 134
e 112 144
e 112 152
e 112 161
e 112 164
e 112 165
e 112 166
e 112 167
e 112 173
e 112 190
e 112 193
e 113 117
e 113 118
e 113 133
e 113 154
e 113 161
e 113 187
e 113 190
e 113 196
e 114 135
e 114 142
e 114 150
e 114 151
e 114 154
e 114 159
e 114 161
e 114 163
e 114 167
e 114 168
e 114 174
e 114 186
e 114 187
e 114 196
e 114 198
e 115 120
e 115 123
e 115 126
e 115 137
e 115 147
e 115 151
e 115 161
e 115 165
e 115 170
e 115 175
e 115 176
e 115 179
e 115 180
e 115 183
e 115 186
e 115 187
e 115 191
e 115 194
e 116 137
e 116 151
e 116 155
e 116 173
e 116 182
e 116 186
e 116 197
e 117 133
e 117 151
e 117 156
e 117 161
e 117 168
e 117 175
e 117 178
e 117 185
e 117 186
e 117 188
e 117 195
e 117 199
e 118 119
e 118 131
e 118 136
e 118 154
e 118 176
e 118 186
e 118 190
e 118 198
e 119 126
e 119 130
e 119 152
e 119 157
e 119 178
e 120 126
e 120 152
e 120 179
e 120 186
e 120 191
e 120 197
e 120 198
e 121 150
e 121 168
e 121 170
e 121 175
e 121 177
e 122 123
e 122 133
e 122 137
e 122 142
e 122 143
e 122 145
e 122 161
e 123 140
e 123 149
e 123 157
e 123 166
e 123 179
e 123 186
e 123 198
e 123 199
e 123 200
e 124 131
e 124 153
e 124 156
e 124 167
e 124 173
e 124 174
e 124 175
e 124 178
e 124 181
e 124 187
e 124 189
e 124 190
e 125 153
e 125 166
e 125 173
e 125 191
e 125 192
e 126 127
e 126 152
e 126 155
e 126 171
e 126 196
e 126 199
e 127 133
e 127 147
e 127 154
e 127 155
e 127 166
e 127 183
e 128 132
e 128 133
e 128 137
e 128 154
e 128 169
e 128 172
e 128 175
e 128 178
e 128 192
e 129 130
e 129 147
e 129 163
e 129 172
e 129 182
e 129 188
e 129 190
e 130 140
e 130 142
e 130 151
e 130 158
e 130 160
e 130 161
e 130 171
e 130 191
e 130 192
e 131 138
e 131 140
e 131 152
e 131 154
e 131 172
e 131 177
e 131 182
e 131 187
e 131 190
e 132 139
e 132 143
e 132 144
e 132 147
e 132 161
e 132 167
e 132 181
e 132 183
e 132 197
e 133 138
e 133 155
e 133 165
e 133 169
e 133 171
e 133 184
e 133 198
e 134 144
e 134 154
e 134 168
e 134 169
e 134 171
e 134 179
e 134 185
e 134 200
e 135 139
e 135 160
e 135 167
e 135 168
e 135 180
e 135 197
e 136 141
e 136 146
e 136 159
e 136 174
e 136 176
e 136 179
e 136 192
e 136 194
e 137 147
e 137 175
e 137 179
e 137 190
e 137 192
e 137 193
e 137 197
e 138 142
e 138 146
e 138 150
e 138 154
e 138 160
e 138 161
e 138 173
e 138 194
e 139 141
e 139 145
e 139 146
e 139 149
e 139 157
e 139 168
e 139 170
e 139 172
e 139 179
e 139 193
e 139 197
e 140 147
e 140 157
e 140 160
e 140 163
e 140 167
e 140 176
e 140 183
e 140 188
e 141 143
e 141 148
e 141 159
e 141 165
e 142 173
e 142 174
e 142 179
e 142 182
e 142 195
e 142 197
e 142 199
e 142 200
e 143 152
e 143 172
e 143 173
e 143 195
e 144 150
e 144 158
e 144 159
e 144 167
e 144 169
e 144 177
e 144 182
e 145 150
e 145 175
e 145 177
e 145 182
e 145 184
e 145 191
e 145 193
e 146 149
e 146 165
e 146 180
e 146 190
e 146 198
e 147 152
e 147 162
e 147 165
e 147 167
e 147 169
e 147 171
e 147 182
e 147 187
e 148 152
e 148 159
e 148 165
e 148 166
e 148 185
e 148 194
e 149 150
e 149 154
e 149 157
e 149 171
e 149 186
e 149 188
e 149 192
e 150 152
e 150 153
e 150 164
e 150 170
e 150 178
e 150 187
e 150 193
e 150 195
e 151 158
e 151 163
e 151 167
e 151 168
e 151 169
e 151 179
e 151 186
e 151 190
e 151 193
e 152 161
e 152 164
e 152 180
e 152 189
e 152 195
e 153 176
e 153 192
e 154 155
e 154 164
e 154 172
e 154 183
e 154 186
e 154 191
e 154 192
e 154 199
e 155 182
e 155 184
e 155 191
e 156 190
e 156 195
e 157 180
e 157 182
e 158 169
e 158 186
e 158 192
e 158 196
e 159 163
e 159 167
e 159 173
e 159 177
e 159 178
e 159 186
e 159 192
e 159 200
e 160 169
e 160 173
e 160 177
e 160 189
e 161 181
e 161 186
e 161 196
e 162 164
e 162 165
e 162 174
e 162 182
e 162 187
e 163 195
e 164 165
e 164 168
e 164 180
e 164 197
e 165 180
e 165 183
e 165 189
e 165 190
e 165 191
e 165 200
e 166 167
e 166 187
e 166 190
e 166 191
e 166 199
e 167 177
e 167 179
e 167 181
e 167 199
e 168 171
e 168 177
e 168 192
e 168 200
e 169 176
e 169 179
e 169 180
e 169 186
e 169 192
e 169 197
e 170 180
e 170 182
e 171 180
e 171 199
e 173 197
e 174 183
e 174 185
e 174 187
e 174 190
e 174 196
e 175 180
e 175 187
e 175 194
e 175 197
e 176 194
e 176 196
e 177 178
e 177 187
e 177 192
e 177 194
e 177 196
e 177 198
e 178 181
e 178 190
e 178 196
e 178 199
e 179 183
e 180 181
e 180 200
e 181 186
e 181 191
e 181 193
e 181 197
e 182 188
e 183 187
e 184 192
e 185 199
e 186 188
e 186 197
e 186 199
e 188 198
e 189 190
e 191 192
e 192 197
e 193 198
e 194 199
e 195 198
e 196 199
e 198 199
e 198 200
